 50 20
 1 1 1 1 1 1 1 1 1 1 1 1 1 1 1 1 1 1 1 1 
 10
 1 2 3 4 5 6 7 8 9 10
 10
 11 12 13 14 15 16 17 18 19 20
 10
 1 3 5 7 9 11 13 15 17 19
 10
 2 4 6 8 10 12 14 16 18 20
 12
 1 2 3 4 5 11 12 13 14 15 19 20
 12
 6 7 8 9 10 16 17 18 19 20 1 2
 8
 3 4 5 6 13 14 15 16
 8
 1 2 7 8 11 12 17 18
 9
 9 10 19 20 3 4 5 6 7
 9
 1 2 11 12 13 14 15 16 17
 10
 1 4 7 10 13 16 19 2 5 8
 10
 3 6 9 12 15 18 20 1 11 14
 11
 2 5 8 11 14 17 20 1 3 6 9
 11
 4 7 10 13 16 19 2 12 15 18 20
 12
 1 2 3 4 5 6 7 8 9 10 11 12
 12
 13 14 15 16 17 18 19 20 1 2 3 4
 8
 5 6 7 8 9 10 11 12
 8
 13 14 15 16 17 18 19 20
 9
 1 3 5 7 9 11 13 15 17
 9
 2 4 6 8 10 12 14 16 18
 10
 1 5 10 15 20 2 6 11 16 17
 10
 3 7 12 17 1 4 8 13 18 2
 11
 5 9 14 19 3 6 10 15 20 4 7
 11
 8 11 16 1 2 3 4 5 6 7 8
 12
 9 10 11 12 13 14 15 16 17 18 19 20
 12
 1 2 3 10 11 12 13 14 15 16 17 18
 8
 4 5 6 19 20 1 2 3
 8
 7 8 9 10 11 12 13 14
 9
 15 16 17 18 19 20 1 2 3
 9
 4 5 6 7 8 9 10 11 12
 10
 1 2 3 4 5 6 7 8 9 20
 10
 10 11 12 13 14 15 16 17 18 19
 11
 1 3 5 7 9 11 13 15 17 19 2
 11
 2 4 6 8 10 12 14 16 18 20 1
 12
 1 2 3 4 5 6 11 12 13 14 15 16
 12
 7 8 9 10 17 18 19 20 1 2 3 4
 8
 5 6 7 8 13 14 15 16
 8
 1 2 9 10 11 12 17 18
 9
 3 4 19 20 5 6 7 8 9
 9
 10 11 12 13 14 15 16 17 1
 10
 1 2 3 4 5 6 7 8 9 10
 10
 11 12 13 14 15 16 17 18 19 20
 11
 1 3 5 7 9 11 13 15 17 19 2
 11
 2 4 6 8 10 12 14 16 18 20 1
 12
 1 2 3 4 5 6 7 8 9 10 11 12
 12
 13 14 15 16 17 18 19 20 1 2 3 4
 8
 5 6 7 8 9 10 11 12
 8
 13 14 15 16 17 18 19 20
 9
 1 5 9 13 17 2 6 10 14
 9
 3 7 11 15 19 4 8 12 16